language ESSENCE' 1.0
letting lastdx=111
letting cage be [
[13,1,4,1,5,0,0, 0,0, 0,0],
[28,8,12,9,12,9,13,0,0, 0,0],
[7,3,7,0,0, 0,0, 0,0, 0,0],
[37,6,10,6,11,6,12,7,12,0,0],
[11,3,14,0,0, 0,0, 0,0, 0,0],
[7,7,3,0,0, 0,0, 0,0, 0,0],
[15,5,10,5,9,0,0, 0,0, 0,0],
[39,11,12,11,11,12,11,0,0, 0,0],
[17,13,1,13,2,0,0, 0,0, 0,0],
[6,15,8,0,0, 0,0, 0,0, 0,0],
[15,8,14,9,14,9,15,0,0, 0,0],
[46,4,3,4,4,5,4,5,5,4,5],
[14,12,1,11,1,0,0, 0,0, 0,0],
[3,12,7,0,0, 0,0, 0,0, 0,0],
[5,13,8,0,0, 0,0, 0,0, 0,0],
[16,7,8,6,8,0,0, 0,0, 0,0],
[35,14,5,15,5,15,6,16,6,0,0],
[21,15,13,14,13,14,12,0,0, 0,0],
[11,10,11,0,0, 0,0, 0,0, 0,0],
[16,5,14,0,0, 0,0, 0,0, 0,0],
[57,8,5,8,6,9,6,9,7,8,7],
[25,6,7,6,6,7,6,7,7,0,0],
[18,4,6,5,6,0,0, 0,0, 0,0],
[17,1,16,2,16,3,16,0,0, 0,0],
[50,7,16,7,15,7,14,6,14,6,13],
[12,9,5,0,0, 0,0, 0,0, 0,0],
[14,8,16,8,15,0,0, 0,0, 0,0],
[7,7,13,8,13,0,0, 0,0, 0,0],
[51,8,1,9,1,9,2,10,2,10,1],
[14,16,7,16,8,0,0, 0,0, 0,0],
[6,6,4,7,4,0,0, 0,0, 0,0],
[48,9,16,10,16,11,16,11,15,12,15],
[5,12,9,0,0, 0,0, 0,0, 0,0],
[2,9,11,0,0, 0,0, 0,0, 0,0],
[37,3,11,2,11,2,12,2,13,0,0],
[13,4,2,3,2,0,0, 0,0, 0,0],
[15,6,15,6,16,0,0, 0,0, 0,0],
[35,5,16,5,15,4,15,4,16,0,0],
[9,3,12,0,0, 0,0, 0,0, 0,0],
[29,1,7,2,7,2,6,1,6,0,0],
[7,4,10,0,0, 0,0, 0,0, 0,0],
[18,10,3,11,3,11,2,0,0, 0,0],
[18,5,11,5,12,5,13,0,0, 0,0],
[9,1,13,0,0, 0,0, 0,0, 0,0],
[7,10,14,10,15,0,0, 0,0, 0,0],
[4,1,14,0,0, 0,0, 0,0, 0,0],
[1,12,10,0,0, 0,0, 0,0, 0,0],
[21,8,3,8,4,0,0, 0,0, 0,0],
[8,14,1,0,0, 0,0, 0,0, 0,0],
[24,10,7,10,6,0,0, 0,0, 0,0],
[4,10,9,0,0, 0,0, 0,0, 0,0],
[27,5,2,5,1,0,0, 0,0, 0,0],
[16,12,4,0,0, 0,0, 0,0, 0,0],
[17,12,3,12,2,0,0, 0,0, 0,0],
[31,2,9,2,8,0,0, 0,0, 0,0],
[15,13,9,0,0, 0,0, 0,0, 0,0],
[12,12,16,0,0, 0,0, 0,0, 0,0],
[10,13,11,0,0, 0,0, 0,0, 0,0],
[25,8,10,8,9,0,0, 0,0, 0,0],
[16,3,8,3,9,4,9,0,0, 0,0],
[32,12,14,13,14,13,15,14,15,14,14],
[2,1,3,0,0, 0,0, 0,0, 0,0],
[20,7,5,6,5,0,0, 0,0, 0,0],
[20,14,7,15,7,0,0, 0,0, 0,0],
[43,2,15,1,15,2,14,3,15,0,0],
[12,14,8,0,0, 0,0, 0,0, 0,0],
[10,12,12,0,0, 0,0, 0,0, 0,0],
[27,14,10,13,10,0,0, 0,0, 0,0],
[9,13,5,0,0, 0,0, 0,0, 0,0],
[4,16,10,0,0, 0,0, 0,0, 0,0],
[33,15,4,16,4,16,5,0,0, 0,0],
[7,11,9,0,0, 0,0, 0,0, 0,0],
[2,10,4,0,0, 0,0, 0,0, 0,0],
[9,9,10,0,0, 0,0, 0,0, 0,0],
[9,2,1,0,0, 0,0, 0,0, 0,0],
[28,4,14,4,13,3,13,0,0, 0,0],
[43,3,3,2,3,2,2,1,2,1,1],
[21,14,6,13,6,13,7,0,0, 0,0],
[12,14,9,15,9,16,9,0,0, 0,0],
[15,16,1,16,2,15,2,15,1,0,0],
[51,3,5,3,6,3,4,2,4,2,5],
[1,1,8,0,0, 0,0, 0,0, 0,0],
[34,10,8,11,8,12,8,0,0, 0,0],
[31,14,3,14,2,0,0, 0,0, 0,0],
[15,15,16,0,0, 0,0, 0,0, 0,0],
[37,10,5,11,5,11,4,11,6,11,7],
[40,16,13,16,14,16,15,16,16,0,0],
[8,13,12,13,13,0,0, 0,0, 0,0],
[5,4,11,4,12,0,0, 0,0, 0,0],
[17,14,16,13,16,0,0, 0,0, 0,0],
[10,8,8,0,0, 0,0, 0,0, 0,0],
[21,6,9,7,9,0,0, 0,0, 0,0],
[14,9,8,9,9,0,0, 0,0, 0,0],
[34,3,10,2,10,1,10,1,9,0,0],
[10,11,14,0,0, 0,0, 0,0, 0,0],
[26,1,11,1,12,0,0, 0,0, 0,0],
[7,3,1,4,1,0,0, 0,0, 0,0],
[14,5,3,0,0, 0,0, 0,0, 0,0],
[16,6,1,0,0, 0,0, 0,0, 0,0],
[20,6,2,6,3,0,0, 0,0, 0,0],
[20,7,1,7,2,8,2,0,0, 0,0],
[25,7,10,7,11,8,11,0,0, 0,0],
[14,9,3,9,4,0,0, 0,0, 0,0],
[23,10,10,11,10,0,0, 0,0, 0,0],
[3,10,12,0,0, 0,0, 0,0, 0,0],
[38,10,13,11,13,12,13,0,0, 0,0],
[10,12,5,12,6,0,0, 0,0, 0,0],
[29,13,3,13,4,14,4,0,0, 0,0],
[9,14,11,0,0, 0,0, 0,0, 0,0],
[17,15,3,16,3,0,0, 0,0, 0,0],
[51,15,10,15,11,16,11,16,12,15,12],
[13,15,14,15,15,0,0, 0,0, 0,0]
]
